NAME /Users/henri/Research/solvers/instances/idol-instances/robust/collection/cbp_Subramanyam_et_al_2020/CapBud_N5_1/models/uncertain_technology_matrix/
ROWS
 N  OBJ
 L  capacity
 L  c_35
 L  c_36
 L  c_37
 L  c_38
 L  c_39
COLUMNS
    MARKER    'MARKER'                 'INTORG'
    x_0        OBJ        1.7091
    x_0        c_35       1
    x_0        capacity   0.341819
    x_1        OBJ        3.58152
    x_1        c_36       1
    x_1        capacity   0.716304
    x_2        OBJ        7.50686
    x_2        c_37       1
    x_2        capacity   1.50137
    x_3        OBJ        6.07831
    x_3        c_38       1
    x_3        capacity   1.21566
    x_4        OBJ        3.25047
    x_4        c_39       1
    x_4        capacity   0.650094
    y_0        OBJ        1.36728
    y_0        c_35       1
    y_0        capacity   0.341819
    y_1        OBJ        2.86522
    y_1        c_36       1
    y_1        capacity   0.716304
    y_2        OBJ        6.00549
    y_2        c_37       1
    y_2        capacity   1.50137
    y_3        OBJ        4.86265
    y_3        c_38       1
    y_3        capacity   1.21566
    y_4        OBJ        2.60038
    y_4        c_39       1
    y_4        capacity   0.650094
    MARKER    'MARKER'                 'INTEND'
RHS
    RHS       capacity   11.0631
    RHS       c_35       1
    RHS       c_36       1
    RHS       c_37       1
    RHS       c_38       1
    RHS       c_39       1
BOUNDS
 LI BND       x_0        0
 UI BND       x_0        1
 LI BND       x_1        0
 UI BND       x_1        1
 LI BND       x_2        0
 UI BND       x_2        1
 LI BND       x_3        0
 UI BND       x_3        1
 LI BND       x_4        0
 UI BND       x_4        1
 LI BND       y_0        0
 UI BND       y_0        1
 LI BND       y_1        0
 UI BND       y_1        1
 LI BND       y_2        0
 UI BND       y_2        1
 LI BND       y_3        0
 UI BND       y_3        1
 LI BND       y_4        0
 UI BND       y_4        1
ENDATA
